(set-logic ALL)
(declare-fun i1 () Int)
(declare-fun it27 () Int)
(declare-fun it28 () Int)
(declare-fun it29 () Int)
(declare-fun it33 () Int)
(assert (= (+ i1 (- 1)) 0))
(assert (= (+ it27 (- 2)) 0))
(assert (= (+ it28 (- 1)) 0))
(assert (= (+ it29 (- 1)) 0))
(assert (let ((a!1 (+ (* (exp 2 (+ it33 (- 1))) (+ 0 it28) (+ 0 (- 1)))
              (* (exp 2 (+ it33 (- 1))) (+ 0 (- 4)))
              (+ 0 6)))
      (a!2 (+ (* (exp 2 (+ it33 (- 1))) (+ 0 (- 4)))
              (* (exp 2 (+ it33 (- 1))) (+ 0 it29) (+ 0 (- 1)))
              (+ 0 6))))
  (and (>= (+ (* it27 (- 1)) 2) 0)
       (>= (+ it27 (- 2)) 0)
       (>= a!1 (+ 0 0))
       (>= a!2 (+ 0 0))
       (>= (+ it33 (- 1)) 0))))
(check-sat)
